200 113
2 168
3 60
6 87
7 86
8 132
9 180
10 28
10 79
10 162
11 52
11 123
11 136
12 105
13 70
14 93
16 66
16 199
17 145
18 19
20 28
21 33
21 64
22 72
22 196
25 87
25 89
25 142
25 151
29 47
29 65
29 176
30 165
31 92
31 123
34 52
34 129
35 112
36 46
36 130
36 139
37 116
38 88
44 147
46 52
47 70
48 154
50 191
54 110
54 112
54 153
54 170
56 70
57 76
58 177
64 135
64 177
64 190
65 95
66 97
67 143
69 117
71 185
73 168
73 193
74 184
76 133
76 186
77 161
78 103
79 114
80 90
81 101
82 100
82 170
82 176
83 111
85 101
85 175
86 139
87 140
87 184
89 126
89 134
93 185
95 115
96 193
98 116
99 180
99 186
101 174
104 116
104 128
105 106
109 182
110 125
111 168
114 197
116 159
122 171
124 150
127 181
128 150
137 172
142 165
143 181
144 148
145 182
151 178
159 167
165 185
169 186
170 193
174 184
